
Gurobi 10.0.0 (linux64) logging started Wed Nov 16 08:33:51 2022

Set parameter LogFile to value "../results/k04_n150_d005/k04_n150_d006_band150_4_A-MILO_log.txt"
Gurobi Optimizer version 10.0.0 build v10.0.0rc2 (linux64)

CPU model: Intel(R) Xeon(R) CPU E5-2630 v4 @ 2.20GHz, instruction set [SSE2|AVX|AVX2]
Thread count: 20 physical cores, 40 logical processors, using up to 10 threads

Optimize a model with 8970 rows, 1335 columns and 27060 nonzeros
Model fingerprint: 0xf1ef95f9
Coefficient statistics:
  Matrix range     [1e+00, 1e+00]
  Objective range  [1e+00, 1e+00]
  Bounds range     [1e+00, 1e+00]
  RHS range        [1e+00, 2e+00]
Presolve removed 46 rows and 9 columns
Presolve time: 0.03s
Presolved: 1326 rows, 10265 columns, 28262 nonzeros

Iteration    Objective       Primal Inf.    Dual Inf.      Time
       0    5.0000000e+00   9.100000e+01   0.000000e+00      0s
     364    3.6900000e+02   0.000000e+00   0.000000e+00      0s

Use crossover to convert LP symmetric solution to basic solution...
Crossover log...

       0 DPushes remaining with DInf 0.0000000e+00                 0s

       0 PPushes remaining with PInf 0.0000000e+00                 0s

  Push phase complete: Pinf 0.0000000e+00, Dinf 0.0000000e+00      0s

Extra simplex iterations after uncrush: 3
Iteration    Objective       Primal Inf.    Dual Inf.      Time
     551    3.6900000e+02   0.000000e+00   0.000000e+00      0s

Solved in 551 iterations and 0.06 seconds (0.04 work units)
Optimal objective  3.690000000e+02
